NAME : mcpfd.89114.tour
COMMENT : Length = 89114
COMMENT : Found by LKH [Keld Helsgaun] Tue Mar 19 20:38:49 2024
TYPE : TOUR
DIMENSION : 30
TOUR_SECTION
1
15
14
25
24
6
7
26
2
8
9
17
16
27
3
20
21
19
18
28
4
12
13
22
23
11
10
29
5
30
-1
EOF
